results_rootrelaxation/bin012_080_022.srr.sol
solution status: optimal solution found
objective value:                     19.1848739495798
_var459_                            0.327731092436975 	(obj:2)
_var721_                            0.184873949579832 	(obj:2)
_var725_                            0.352941176470588 	(obj:1)
_var726_                           0.0168067226890761 	(obj:2)
_var731_                            0.487394957983193 	(obj:1)
_var735_                           0.0168067226890753 	(obj:3)
_var743_                           0.0756302521008405 	(obj:2)
_var746_                             0.38655462184874 	(obj:2)
_var753_                           0.0504201680672274 	(obj:2)
_var755_                            0.252100840336134 	(obj:2)
_var756_                            0.302521008403362 	(obj:2)
_var763_                            0.268907563025211 	(obj:1)
_var766_                            0.226890756302522 	(obj:2)
_var769_                            0.109243697478992 	(obj:2)
_var779_                            0.235294117647059 	(obj:2)
_var782_                            0.621848739495799 	(obj:2)
_var783_                            0.033613445378151 	(obj:2)
_var794_                            0.168067226890756 	(obj:2)
_var809_                            0.411764705882353 	(obj:2)
_var812_                            0.126050420168067 	(obj:2)
_var825_                            0.521008403361344 	(obj:1)
_var826_                            0.025210084033613 	(obj:2)
_var828_                            0.235294117647059 	(obj:1)
_var830_                            0.117647058823529 	(obj:2)
_var835_                           0.0672268907563022 	(obj:3)
_var839_                            0.478991596638656 	(obj:1)
_var840_                           0.0924369747899159 	(obj:1)
_var842_                            0.327731092436975 	(obj:2)
_var843_                            0.109243697478992 	(obj:3)
_var844_                            0.176470588235294 	(obj:2)
_var850_                            0.126050420168067 	(obj:1)
_var851_                            0.285714285714285 	(obj:1)
_var858_                            0.126050420168067 	(obj:2)
_var862_                             0.19327731092437 	(obj:1)
_var866_                            0.193277310924369 	(obj:3)
_var868_                             0.11764705882353 	(obj:3)
_var870_                            0.352941176470588 	(obj:2)
_var872_                            0.159663865546218 	(obj:1)
_var874_                            0.336134453781513 	(obj:2)
_var876_                            0.126050420168067 	(obj:2)
_var880_                            0.126050420168067 	(obj:1)
_var882_                            0.176470588235294 	(obj:1)
_var889_                            0.159663865546218 	(obj:2)
_var890_                            0.109243697478991 	(obj:3)
_var893_                            0.126050420168067 	(obj:1)
_var905_                            0.285714285714285 	(obj:2)
_var906_                            0.235294117647059 	(obj:3)
_var910_                           0.0672268907563024 	(obj:2)
_var911_                            0.033613445378151 	(obj:1)
_var912_                          0.00840336134453798 	(obj:2)
_var916_                            0.193277310924369 	(obj:2)
_var918_                            0.252100840336134 	(obj:2)
_var921_                           0.0924369747899162 	(obj:2)
_var924_                           0.0420168067226891 	(obj:2)
_var926_                           0.0504201680672265 	(obj:2)
_var927_                           0.0588235294117651 	(obj:2)
_var930_                            0.109243697478992 	(obj:2)
_var931_                           0.0504201680672272 	(obj:2)
