results_rootrelaxation/bin012_080_022.srr.log
SCIP version 8.0.3.5 [precision: 8 byte] [memory: block] [mode: optimized] [LP solver: Soplex 6.0.1.3] [GitHash: 438792519e]
Copyright (c) 2002-2023 Zuse Institute Berlin (ZIB)

External libraries: 
  Readline 8.1         GNU library for command line editing (gnu.org/s/readline)
  Soplex 6.0.1.3       Linear Programming Solver developed at Zuse Institute Berlin (soplex.zib.de) [GitHash: 713be0fe]
  CppAD 20180000.0     Algorithmic Differentiation of C++ algorithms developed by B. Bell (github.com/coin-or/CppAD)
  ZLIB 1.2.11          General purpose compression library by J. Gailly and M. Adler (zlib.net)
  bliss 0.77           Computing Graph Automorphism Groups by T. Junttila and P. Kaski (www.tcs.hut.fi/Software/bliss/)

user parameter file <scip.set> not found - using default parameters

srr/relaxation = TRUE

read problem <instances/bin012_080_022.srr>
============

Original problem: 
original problem has 0 variables (0 bin, 0 int, 0 impl, 0 cont) and 77 constraints

presolving:
presolving (1 rounds: 1 fast, 1 medium, 1 exhaustive):
 0 deleted vars, 0 deleted constraints, 0 added constraints, 0 tightened bounds, 0 added holes, 0 changed sides, 0 changed coefficients
 0 implications, 0 cliques
presolved problem has 0 variables (0 bin, 0 int, 0 impl, 0 cont) and 77 constraints
     77 constraints of type <linear>
Presolving Time: 0.00

 time | node  | left  |LP iter|LP it/n|mem/heur|mdpt |vars |cons |rows |cuts |sepa|confs|strbr|  dualbound   | primalbound  |  gap   | compl. 
  0.0s|     1 |     0 |     1 |     - |   710k |   0 |   1 |  77 |  77 |   0 |  0 |   0 |   0 |      --      |      --      |    Inf | unknown
r 0.1s|     1 |     0 |   883 |     - |simplero|   0 | 688 |  77 |  77 |   0 |  0 |   0 |   0 |      --      | 3.693908e+01 |    Inf | unknown
r 0.1s|     1 |     0 |   940 |     - |simplero|   0 | 699 |  77 |  77 |   0 |  0 |   0 |   0 |      --      | 3.530722e+01 |    Inf | unknown
r 0.1s|     1 |     0 |  1000 |     - |simplero|   0 | 710 |  77 |  77 |   0 |  0 |   0 |   0 |      --      | 3.310699e+01 |    Inf | unknown
r 0.1s|     1 |     0 |  1047 |     - |simplero|   0 | 721 |  77 |  77 |   0 |  0 |   0 |   0 |      --      | 3.212355e+01 |    Inf | unknown
r 0.1s|     1 |     0 |  1136 |     - |simplero|   0 | 732 |  77 |  77 |   0 |  0 |   0 |   0 |      --      | 2.855734e+01 |    Inf | unknown
r 0.1s|     1 |     0 |  1170 |     - |simplero|   0 | 743 |  77 |  77 |   0 |  0 |   0 |   0 |      --      | 2.799557e+01 |    Inf | unknown
r 0.1s|     1 |     0 |  1194 |     - |simplero|   0 | 743 |  77 |  77 |   0 |  0 |   0 |   0 |      --      | 2.778880e+01 |    Inf | unknown
r 0.1s|     1 |     0 |  1205 |     - |simplero|   0 | 743 |  77 |  77 |   0 |  0 |   0 |   0 |      --      | 2.772928e+01 |    Inf | unknown
r 0.1s|     1 |     0 |  1263 |     - |simplero|   0 | 754 |  77 |  77 |   0 |  0 |   0 |   0 |      --      | 2.604102e+01 |    Inf | unknown
r 0.1s|     1 |     0 |  1285 |     - |simplero|   0 | 754 |  77 |  77 |   0 |  0 |   0 |   0 |      --      | 2.592742e+01 |    Inf | unknown
r 0.1s|     1 |     0 |  1333 |     - |simplero|   0 | 765 |  77 |  77 |   0 |  0 |   0 |   0 |      --      | 2.510311e+01 |    Inf | unknown
r 0.1s|     1 |     0 |  1372 |     - |simplero|   0 | 776 |  77 |  77 |   0 |  0 |   0 |   0 |      --      | 2.415737e+01 |    Inf | unknown
r 0.1s|     1 |     0 |  1392 |     - |simplero|   0 | 776 |  77 |  77 |   0 |  0 |   0 |   0 |      --      | 2.394828e+01 |    Inf | unknown
r 0.1s|     1 |     0 |  1396 |     - |simplero|   0 | 776 |  77 |  77 |   0 |  0 |   0 |   0 |      --      | 2.394622e+01 |    Inf | unknown
 time | node  | left  |LP iter|LP it/n|mem/heur|mdpt |vars |cons |rows |cuts |sepa|confs|strbr|  dualbound   | primalbound  |  gap   | compl. 
r 0.1s|     1 |     0 |  1451 |     - |simplero|   0 | 787 |  77 |  77 |   0 |  0 |   0 |   0 |      --      | 2.288825e+01 |    Inf | unknown
r 0.1s|     1 |     0 |  1467 |     - |simplero|   0 | 787 |  77 |  77 |   0 |  0 |   0 |   0 |      --      | 2.282888e+01 |    Inf | unknown
r 0.1s|     1 |     0 |  1475 |     - |simplero|   0 | 787 |  77 |  77 |   0 |  0 |   0 |   0 |      --      | 2.282221e+01 |    Inf | unknown
r 0.1s|     1 |     0 |  1479 |     - |simplero|   0 | 787 |  77 |  77 |   0 |  0 |   0 |   0 |      --      | 2.281694e+01 |    Inf | unknown
r 0.1s|     1 |     0 |  1515 |     - |simplero|   0 | 798 |  77 |  77 |   0 |  0 |   0 |   0 |      --      | 2.220982e+01 |    Inf | unknown
r 0.1s|     1 |     0 |  1525 |     - |simplero|   0 | 798 |  77 |  77 |   0 |  0 |   0 |   0 |      --      | 2.211926e+01 |    Inf | unknown
r 0.1s|     1 |     0 |  1546 |     - |simplero|   0 | 809 |  77 |  77 |   0 |  0 |   0 |   0 |      --      | 2.175895e+01 |    Inf | unknown
r 0.1s|     1 |     0 |  1576 |     - |simplero|   0 | 820 |  77 |  77 |   0 |  0 |   0 |   0 |      --      | 2.153335e+01 |    Inf | unknown
r 0.1s|     1 |     0 |  1582 |     - |simplero|   0 | 820 |  77 |  77 |   0 |  0 |   0 |   0 |      --      | 2.151011e+01 |    Inf | unknown
r 0.1s|     1 |     0 |  1584 |     - |simplero|   0 | 820 |  77 |  77 |   0 |  0 |   0 |   0 |      --      | 2.150453e+01 |    Inf | unknown
r 0.1s|     1 |     0 |  1624 |     - |simplero|   0 | 831 |  77 |  77 |   0 |  0 |   0 |   0 |      --      | 2.114975e+01 |    Inf | unknown
r 0.1s|     1 |     0 |  1629 |     - |simplero|   0 | 831 |  77 |  77 |   0 |  0 |   0 |   0 |      --      | 2.113716e+01 |    Inf | unknown
r 0.1s|     1 |     0 |  1630 |     - |simplero|   0 | 831 |  77 |  77 |   0 |  0 |   0 |   0 |      --      | 2.113619e+01 |    Inf | unknown
r 0.1s|     1 |     0 |  1632 |     - |simplero|   0 | 831 |  77 |  77 |   0 |  0 |   0 |   0 |      --      | 2.113573e+01 |    Inf | unknown
r 0.1s|     1 |     0 |  1664 |     - |simplero|   0 | 842 |  77 |  77 |   0 |  0 |   0 |   0 |      --      | 2.065735e+01 |    Inf | unknown
 time | node  | left  |LP iter|LP it/n|mem/heur|mdpt |vars |cons |rows |cuts |sepa|confs|strbr|  dualbound   | primalbound  |  gap   | compl. 
r 0.1s|     1 |     0 |  1682 |     - |simplero|   0 | 842 |  77 |  77 |   0 |  0 |   0 |   0 |      --      | 2.054545e+01 |    Inf | unknown
  0.1s|     1 |     0 |  1688 |     - |  4117k |   0 | 842 |  77 |  77 |   0 |  0 |   0 |   0 |      --      | 2.054545e+01 |    Inf | unknown
r 0.1s|     1 |     0 |  1688 |     - |simplero|   0 | 842 |  77 |  77 |   0 |  0 |   0 |   0 |      --      | 2.054000e+01 |    Inf | unknown
r 0.1s|     1 |     0 |  1720 |     - |simplero|   0 | 853 |  77 |  77 |   0 |  0 |   0 |   0 |      --      | 2.011100e+01 |    Inf | unknown
r 0.1s|     1 |     0 |  1735 |     - |simplero|   0 | 853 |  77 |  77 |   0 |  0 |   0 |   0 |      --      | 2.001163e+01 |    Inf | unknown
r 0.1s|     1 |     0 |  1740 |     - |simplero|   0 | 853 |  77 |  77 |   0 |  0 |   0 |   0 |      --      | 1.999647e+01 |    Inf | unknown
r 0.1s|     1 |     0 |  1741 |     - |simplero|   0 | 853 |  77 |  77 |   0 |  0 |   0 |   0 |      --      | 1.999644e+01 |    Inf | unknown
r 0.1s|     1 |     0 |  1760 |     - |simplero|   0 | 864 |  77 |  77 |   0 |  0 |   0 |   0 |      --      | 1.979221e+01 |    Inf | unknown
r 0.1s|     1 |     0 |  1774 |     - |simplero|   0 | 864 |  77 |  77 |   0 |  0 |   0 |   0 |      --      | 1.976947e+01 |    Inf | unknown
r 0.1s|     1 |     0 |  1799 |     - |simplero|   0 | 875 |  77 |  77 |   0 |  0 |   0 |   0 |      --      | 1.961268e+01 |    Inf | unknown
r 0.1s|     1 |     0 |  1809 |     - |simplero|   0 | 875 |  77 |  77 |   0 |  0 |   0 |   0 |      --      | 1.958535e+01 |    Inf | unknown
r 0.1s|     1 |     0 |  1833 |     - |simplero|   0 | 886 |  77 |  77 |   0 |  0 |   0 |   0 |      --      | 1.946796e+01 |    Inf | unknown
r 0.1s|     1 |     0 |  1839 |     - |simplero|   0 | 886 |  77 |  77 |   0 |  0 |   0 |   0 |      --      | 1.946744e+01 |    Inf | unknown
r 0.1s|     1 |     0 |  1843 |     - |simplero|   0 | 886 |  77 |  77 |   0 |  0 |   0 |   0 |      --      | 1.946487e+01 |    Inf | unknown
r 0.1s|     1 |     0 |  1863 |     - |simplero|   0 | 895 |  77 |  77 |   0 |  0 |   0 |   0 |      --      | 1.941787e+01 |    Inf | unknown
 time | node  | left  |LP iter|LP it/n|mem/heur|mdpt |vars |cons |rows |cuts |sepa|confs|strbr|  dualbound   | primalbound  |  gap   | compl. 
r 0.1s|     1 |     0 |  1874 |     - |simplero|   0 | 895 |  77 |  77 |   0 |  0 |   0 |   0 |      --      | 1.941126e+01 |    Inf | unknown
r 0.1s|     1 |     0 |  1893 |     - |simplero|   0 | 904 |  77 |  77 |   0 |  0 |   0 |   0 |      --      | 1.935395e+01 |    Inf | unknown
r 0.1s|     1 |     0 |  1896 |     - |simplero|   0 | 904 |  77 |  77 |   0 |  0 |   0 |   0 |      --      | 1.935385e+01 |    Inf | unknown
r 0.1s|     1 |     0 |  1910 |     - |simplero|   0 | 913 |  77 |  77 |   0 |  0 |   0 |   0 |      --      | 1.931894e+01 |    Inf | unknown
r 0.1s|     1 |     0 |  1923 |     - |simplero|   0 | 913 |  77 |  77 |   0 |  0 |   0 |   0 |      --      | 1.928571e+01 |    Inf | unknown
r 0.1s|     1 |     0 |  1945 |     - |simplero|   0 | 919 |  77 |  77 |   0 |  0 |   0 |   0 |      --      | 1.923052e+01 |    Inf | unknown
r 0.1s|     1 |     0 |  1953 |     - |simplero|   0 | 919 |  77 |  77 |   0 |  0 |   0 |   0 |      --      | 1.922143e+01 |    Inf | unknown
r 0.1s|     1 |     0 |  1954 |     - |simplero|   0 | 919 |  77 |  77 |   0 |  0 |   0 |   0 |      --      | 1.922124e+01 |    Inf | unknown
r 0.1s|     1 |     0 |  1971 |     - |simplero|   0 | 923 |  77 |  77 |   0 |  0 |   0 |   0 |      --      | 1.920408e+01 |    Inf | unknown
r 0.1s|     1 |     0 |  1979 |     - |simplero|   0 | 925 |  77 |  77 |   0 |  0 |   0 |   0 |      --      | 1.919853e+01 |    Inf | unknown
r 0.1s|     1 |     0 |  1987 |     - |simplero|   0 | 929 |  77 |  77 |   0 |  0 |   0 |   0 |      --      | 1.919389e+01 |    Inf | unknown
r 0.1s|     1 |     0 |  1988 |     - |simplero|   0 | 929 |  77 |  77 |   0 |  0 |   0 |   0 |      --      | 1.919386e+01 |    Inf | unknown
r 0.1s|     1 |     0 |  1997 |     - |simplero|   0 | 931 |  77 |  77 |   0 |  0 |   0 |   0 |      --      | 1.918750e+01 |    Inf | unknown
r 0.1s|     1 |     0 |  2001 |     - |simplero|   0 | 932 |  77 |  77 |   0 |  0 |   0 |   0 |      --      | 1.918487e+01 |    Inf | unknown
  0.1s|     1 |     0 |  2002 |     - |  4612k |   0 | 933 |  77 |  77 |   0 |  0 |   0 |   0 | 1.918487e+01 | 1.918487e+01 |   0.00%| unknown
 time | node  | left  |LP iter|LP it/n|mem/heur|mdpt |vars |cons |rows |cuts |sepa|confs|strbr|  dualbound   | primalbound  |  gap   | compl. 
  0.1s|     1 |     0 |  2002 |     - |  4612k |   0 | 933 |  77 |  77 |   0 |  0 |   0 |   0 | 1.918487e+01 | 1.918487e+01 |   0.00%| unknown

SCIP Status        : problem is solved [optimal solution found]
Solving Time (sec) : 0.12
Solving Nodes      : 1
Primal Bound       : +1.91848739495798e+01 (57 solutions)
Dual Bound         : +1.91848739495798e+01
Gap                : 0.00 %

written transformed problem to file <results_rootrelaxation/bin012_080_022.srr.lp>
written transformed problem to file <results_rootrelaxation/bin012_080_022.srr.cip>

written solution information to file <results_rootrelaxation/bin012_080_022.srr.sol>



